db/data/2021326415321122413136027737343213253.z3.out
-------------------
2500.126098304
